54659
53, 34, 47, 30, 4, 18, 12, 9, 14, 2, 42, 33, 27, 1, 25, 31, 11, 45, 52, 15, 36, 39, 46, 16, 10, 22, 29, 21, 23, 17, 48, 49, 19, 44, 38, 8, 32, 41, 13, 5, 35, 24, 50, 20, 7, 37, 51, 40, 43, 6, 3, 28, 55, 26, 54
